15
10
21
6
69
25
55
16
71
30
5
35
52
46
99
76
34
27
11
65
59
26
82
12
63
66
22
43
87
74
48
83
81
45
28
73
94
14
36
29
49
80
9
33
58
60
72
17
98
57
61
19
67
62
96
95
77
40
39
8
85
32
90
78
75
7
23
88
56
84
91
86
20
92
64
47
13
97
89
1
3
18
50
54
24
0
42
2
51
44
37
38
70
41
93
4
31
53
79
68
